100
128
14
22
5
8
13
32
4
15
16
2
7
1
27
6
1
50
19
26
8
2
20
35
12
41
2
45
13
5
17
23
20
3
11
13
4
3
7
57
5
11
30
6
28
13
1
15
1
5
10
5
29
1
5
10
4
44
2
15
2
55
4
11
5
1
16
5
1
2
28
7
21
8
2
26
3
33
1
35
52
64
42
3
47
42
45
11
53
45
13
54
42
16
62
27
41
34
5
39
62
3